50
6022

577 252
192 324
674 963
450 193
663 47
92 954
150 868
473 694
493 847
279 863
273 370
329 151
209 890
839 831
642 855
469 71
206 294
97 213
395 489
459 290
567 16
544 329
461 588
527 611
25 725
413 5
940 533
717 253
188 228
699 750
698 38
398 171
542 297
189 540
38 725
333 605
188 408
175 726
474 435
906 856
750 835
864 321
281 863
958 769
268 327
207 632
387 367
389 171
77 878
917 2
